(declare-fun e () String)
(declare-fun c () String)
(declare-fun g () String)
(declare-fun b () String)
(declare-fun d () String)
(declare-fun f () String)
(declare-fun a () String)
(declare-fun h () String)
(assert (= (str.++ a h) (str.++ g "c")))
(assert (= (str.++ g f b "bd") e))
(assert (= (str.++ f c "cge") (str.++ "h" a "c" d)))

(check-sat)
